11
0 71 48 58 78 22 68 97 63 99 3 
45 0 67 50 64 51 27 68 65 88 1 
21 37 0 16 23 58 42 31 41 75 7 
80 20 60 0 96 8 23 1 5 25 55 
55 64 76 33 0 25 15 48 95 15 22 
97 23 86 8 99 0 38 48 56 58 69 
81 82 25 16 14 99 0 81 96 33 17 
73 31 1 83 45 17 23 0 8 87 13 
70 2 36 12 27 80 42 46 0 48 96 
69 3 26 11 56 23 36 2 38 0 85 
46 6 57 27 90 58 14 91 53 43 0 
